10
9 2 3 5 7 9 3 1 2 5
2 9 6 1 4 4 6 2 7 9
3 5 9 2 7 5 4 2 7 8
2 6 7 9 6 4 6 7 8 3
6 4 3 1 9 4 6 3 6 7
4 4 3 1 9 4 6 3 6 7
5 2 6 7 9 6 4 6 7 8
6 9 2 3 5 7 9 3 1 2
7 5 9 2 7 5 4 2 7 8
8 2 9 6 1 4 4 6 2 7
